1600 3200
1 2 4
1 41 3
2 3 4
2 42 4
3 4 1
3 43 3
4 5 5
4 44 3
5 6 1
5 45 3
6 7 5
6 46 2
7 8 1
7 47 3
8 9 3
8 48 5
9 10 2
9 49 3
10 11 4
10 50 2
11 12 2
11 51 1
12 13 3
12 52 2
13 14 2
13 53 3
14 15 5
14 54 5
15 16 4
15 55 2
16 17 4
16 56 2
17 18 4
17 57 4
18 19 1
18 58 1
19 20 2
19 59 2
20 21 4
20 60 1
21 22 2
21 61 2
22 23 2
22 62 3
23 24 3
23 63 3
24 25 2
24 64 5
25 26 1
25 65 4
26 27 5
26 66 3
27 28 4
27 67 5
28 29 2
28 68 2
29 30 4
29 69 5
30 31 1
30 70 4
31 32 1
31 71 3
32 33 3
32 72 3
33 34 1
33 73 2
34 35 5
34 74 1
35 36 5
35 75 4
36 37 2
36 76 3
37 38 4
37 77 3
38 39 2
38 78 3
39 40 2
39 79 3
40 80 4
41 42 1
41 81 2
42 43 1
42 82 5
43 44 3
43 83 1
44 45 5
44 84 3
45 46 1
45 85 3
46 47 5
46 86 2
47 48 1
47 87 2
48 49 1
48 88 1
49 50 1
49 89 4
50 51 2
50 90 1
51 52 1
51 91 4
52 53 1
52 92 3
53 54 4
53 93 5
54 55 3
54 94 4
55 56 3
55 95 1
56 57 1
56 96 1
57 58 4
57 97 1
58 59 1
58 98 3
59 60 1
59 99 1
60 61 5
60 100 4
61 62 4
61 101 4
62 63 1
62 102 2
63 64 5
63 103 2
64 65 2
64 104 4
65 66 4
65 105 3
66 67 2
66 106 4
67 68 5
67 107 5
68 69 3
68 108 5
69 70 2
69 109 2
70 71 4
70 110 5
71 72 5
71 111 4
72 73 1
72 112 2
73 74 4
73 113 4
74 75 3
74 114 4
75 76 2
75 115 1
76 77 1
76 116 2
77 78 1
77 117 3
78 79 5
78 118 5
79 80 4
79 119 3
80 120 5
81 82 3
81 121 2
82 83 5
82 122 2
83 84 3
83 123 3
84 85 2
84 124 4
85 86 3
85 125 5
86 87 3
86 126 5
87 88 2
87 127 5
88 89 4
88 128 2
89 90 4
89 129 1
90 91 1
90 130 2
91 92 5
91 131 3
92 93 2
92 132 3
93 94 4
93 133 4
94 95 1
94 134 5
95 96 1
95 135 5
96 97 5
96 136 2
97 98 1
97 137 5
98 99 3
98 138 5
99 100 4
99 139 3
100 101 5
100 140 3
101 102 2
101 141 5
102 103 5
102 142 3
103 104 5
103 143 5
104 105 5
104 144 1
105 106 2
105 145 2
106 107 2
106 146 3
107 108 4
107 147 3
108 109 2
108 148 1
109 110 4
109 149 2
110 111 4
110 150 4
111 112 5
111 151 2
112 113 3
112 152 5
113 114 1
113 153 5
114 115 1
114 154 2
115 116 1
115 155 5
116 117 3
116 156 4
117 118 5
117 157 5
118 119 2
118 158 4
119 120 5
119 159 1
120 160 3
121 122 2
121 161 5
122 123 5
122 162 4
123 124 1
123 163 5
124 125 1
124 164 5
125 126 5
125 165 4
126 127 2
126 166 3
127 128 2
127 167 5
128 129 4
128 168 4
129 130 5
129 169 1
130 131 5
130 170 3
131 132 5
131 171 3
132 133 5
132 172 2
133 134 5
133 173 4
134 135 4
134 174 1
135 136 1
135 175 3
136 137 4
136 176 4
137 138 5
137 177 1
138 139 4
138 178 1
139 140 1
139 179 3
140 141 1
140 180 4
141 142 5
141 181 2
142 143 5
142 182 2
143 144 5
143 183 4
144 145 1
144 184 5
145 146 4
145 185 5
146 147 1
146 186 1
147 148 5
147 187 4
148 149 1
148 188 1
149 150 4
149 189 2
150 151 1
150 190 2
151 152 5
151 191 5
152 153 2
152 192 5
153 154 1
153 193 4
154 155 3
154 194 1
155 156 2
155 195 1
156 157 3
156 196 2
157 158 1
157 197 4
158 159 5
158 198 4
159 160 3
159 199 5
160 200 1
161 162 5
161 201 2
162 163 2
162 202 3
163 164 4
163 203 3
164 165 3
164 204 3
165 166 5
165 205 5
166 167 4
166 206 3
167 168 2
167 207 3
168 169 1
168 208 5
169 170 5
169 209 5
170 171 1
170 210 2
171 172 4
171 211 1
172 173 1
172 212 2
173 174 2
173 213 1
174 175 3
174 214 2
175 176 2
175 215 3
176 177 4
176 216 1
177 178 2
177 217 4
178 179 1
178 218 1
179 180 4
179 219 5
180 181 2
180 220 5
181 182 5
181 221 2
182 183 5
182 222 1
183 184 4
183 223 1
184 185 2
184 224 5
185 186 3
185 225 1
186 187 1
186 226 1
187 188 4
187 227 3
188 189 2
188 228 2
189 190 5
189 229 2
190 191 1
190 230 3
191 192 5
191 231 3
192 193 5
192 232 2
193 194 2
193 233 2
194 195 2
194 234 4
195 196 2
195 235 2
196 197 1
196 236 4
197 198 3
197 237 1
198 199 3
198 238 3
199 200 4
199 239 2
200 240 3
201 202 4
201 241 3
202 203 5
202 242 2
203 204 4
203 243 2
204 205 2
204 244 3
205 206 1
205 245 5
206 207 5
206 246 1
207 208 4
207 247 4
208 209 1
208 248 3
209 210 5
209 249 2
210 211 4
210 250 5
211 212 2
211 251 5
212 213 2
212 252 3
213 214 2
213 253 3
214 215 3
214 254 2
215 216 1
215 255 2
216 217 3
216 256 1
217 218 4
217 257 4
218 219 3
218 258 3
219 220 5
219 259 2
220 221 2
220 260 1
221 222 4
221 261 5
222 223 3
222 262 3
223 224 3
223 263 5
224 225 1
224 264 4
225 226 5
225 265 2
226 227 2
226 266 1
227 228 4
227 267 3
228 229 5
228 268 1
229 230 3
229 269 2
230 231 1
230 270 2
231 232 4
231 271 4
232 233 2
232 272 1
233 234 2
233 273 1
234 235 3
234 274 2
235 236 4
235 275 2
236 237 3
236 276 2
237 238 3
237 277 1
238 239 1
238 278 5
239 240 3
239 279 2
240 280 2
241 242 1
241 281 5
242 243 3
242 282 5
243 244 1
243 283 3
244 245 5
244 284 3
245 246 5
245 285 3
246 247 2
246 286 5
247 248 1
247 287 2
248 249 5
248 288 5
249 250 2
249 289 1
250 251 5
250 290 1
251 252 2
251 291 3
252 253 3
252 292 5
253 254 4
253 293 2
254 255 1
254 294 4
255 256 5
255 295 2
256 257 3
256 296 3
257 258 1
257 297 5
258 259 3
258 298 1
259 260 2
259 299 4
260 261 4
260 300 5
261 262 5
261 301 4
262 263 3
262 302 1
263 264 3
263 303 5
264 265 5
264 304 1
265 266 2
265 305 4
266 267 2
266 306 2
267 268 3
267 307 5
268 269 2
268 308 5
269 270 5
269 309 3
270 271 3
270 310 1
271 272 1
271 311 4
272 273 5
272 312 4
273 274 2
273 313 3
274 275 5
274 314 5
275 276 2
275 315 2
276 277 1
276 316 5
277 278 1
277 317 5
278 279 3
278 318 1
279 280 4
279 319 2
280 320 5
281 282 1
281 321 5
282 283 1
282 322 5
283 284 2
283 323 1
284 285 1
284 324 2
285 286 5
285 325 1
286 287 2
286 326 1
287 288 2
287 327 3
288 289 5
288 328 4
289 290 3
289 329 2
290 291 2
290 330 4
291 292 2
291 331 2
292 293 3
292 332 4
293 294 4
293 333 4
294 295 3
294 334 4
295 296 4
295 335 5
296 297 4
296 336 3
297 298 5
297 337 4
298 299 3
298 338 1
299 300 1
299 339 5
300 301 4
300 340 4
301 302 1
301 341 3
302 303 5
302 342 4
303 304 2
303 343 4
304 305 5
304 344 3
305 306 1
305 345 4
306 307 3
306 346 2
307 308 5
307 347 3
308 309 4
308 348 5
309 310 5
309 349 1
310 311 4
310 350 5
311 312 1
311 351 1
312 313 5
312 352 1
313 314 3
313 353 4
314 315 3
314 354 5
315 316 1
315 355 2
316 317 3
316 356 3
317 318 1
317 357 1
318 319 5
318 358 1
319 320 5
319 359 1
320 360 2
321 322 4
321 361 4
322 323 3
322 362 4
323 324 5
323 363 1
324 325 5
324 364 2
325 326 3
325 365 3
326 327 1
326 366 3
327 328 3
327 367 5
328 329 3
328 368 5
329 330 4
329 369 2
330 331 1
330 370 5
331 332 4
331 371 1
332 333 4
332 372 3
333 334 4
333 373 4
334 335 4
334 374 1
335 336 5
335 375 2
336 337 2
336 376 1
337 338 5
337 377 3
338 339 5
338 378 5
339 340 5
339 379 1
340 341 5
340 380 3
341 342 4
341 381 1
342 343 2
342 382 1
343 344 2
343 383 1
344 345 4
344 384 3
345 346 1
345 385 1
346 347 2
346 386 5
347 348 1
347 387 1
348 349 5
348 388 2
349 350 3
349 389 1
350 351 2
350 390 2
351 352 5
351 391 5
352 353 1
352 392 1
353 354 2
353 393 3
354 355 2
354 394 4
355 356 4
355 395 4
356 357 4
356 396 3
357 358 1
357 397 5
358 359 1
358 398 5
359 360 5
359 399 5
360 400 1
361 362 3
361 401 2
362 363 1
362 402 5
363 364 2
363 403 1
364 365 4
364 404 5
365 366 3
365 405 2
366 367 2
366 406 1
367 368 4
367 407 3
368 369 1
368 408 1
369 370 3
369 409 3
370 371 5
370 410 5
371 372 1
371 411 1
372 373 1
372 412 4
373 374 4
373 413 2
374 375 5
374 414 5
375 376 2
375 415 1
376 377 5
376 416 4
377 378 4
377 417 4
378 379 5
378 418 3
379 380 2
379 419 2
380 381 2
380 420 4
381 382 2
381 421 5
382 383 2
382 422 1
383 384 3
383 423 4
384 385 4
384 424 4
385 386 2
385 425 3
386 387 3
386 426 4
387 388 2
387 427 3
388 389 5
388 428 2
389 390 1
389 429 5
390 391 5
390 430 2
391 392 5
391 431 5
392 393 2
392 432 4
393 394 3
393 433 5
394 395 3
394 434 4
395 396 2
395 435 4
396 397 3
396 436 4
397 398 5
397 437 1
398 399 3
398 438 4
399 400 2
399 439 4
400 440 5
401 402 3
401 441 3
402 403 4
402 442 2
403 404 3
403 443 5
404 405 3
404 444 2
405 406 1
405 445 2
406 407 2
406 446 5
407 408 3
407 447 3
408 409 3
408 448 4
409 410 2
409 449 1
410 411 3
410 450 5
411 412 2
411 451 2
412 413 5
412 452 2
413 414 5
413 453 4
414 415 2
414 454 3
415 416 5
415 455 4
416 417 4
416 456 2
417 418 1
417 457 2
418 419 1
418 458 5
419 420 2
419 459 1
420 421 4
420 460 1
421 422 5
421 461 1
422 423 2
422 462 1
423 424 4
423 463 4
424 425 5
424 464 3
425 426 5
425 465 1
426 427 4
426 466 2
427 428 4
427 467 5
428 429 3
428 468 5
429 430 4
429 469 3
430 431 1
430 470 4
431 432 4
431 471 1
432 433 3
432 472 4
433 434 5
433 473 4
434 435 3
434 474 2
435 436 2
435 475 3
436 437 1
436 476 4
437 438 3
437 477 5
438 439 3
438 478 1
439 440 3
439 479 1
440 480 5
441 442 1
441 481 1
442 443 5
442 482 5
443 444 1
443 483 3
444 445 4
444 484 5
445 446 2
445 485 1
446 447 2
446 486 2
447 448 5
447 487 2
448 449 2
448 488 4
449 450 5
449 489 1
450 451 3
450 490 1
451 452 3
451 491 5
452 453 4
452 492 5
453 454 3
453 493 3
454 455 5
454 494 5
455 456 3
455 495 5
456 457 1
456 496 4
457 458 5
457 497 5
458 459 2
458 498 3
459 460 2
459 499 3
460 461 2
460 500 1
461 462 1
461 501 4
462 463 5
462 502 1
463 464 1
463 503 4
464 465 1
464 504 4
465 466 1
465 505 1
466 467 5
466 506 1
467 468 5
467 507 2
468 469 1
468 508 1
469 470 1
469 509 3
470 471 5
470 510 5
471 472 5
471 511 5
472 473 3
472 512 2
473 474 3
473 513 5
474 475 4
474 514 5
475 476 4
475 515 5
476 477 1
476 516 5
477 478 5
477 517 1
478 479 2
478 518 1
479 480 5
479 519 1
480 520 2
481 482 1
481 521 1
482 483 2
482 522 4
483 484 2
483 523 3
484 485 2
484 524 4
485 486 2
485 525 3
486 487 4
486 526 3
487 488 1
487 527 5
488 489 5
488 528 5
489 490 2
489 529 4
490 491 2
490 530 3
491 492 1
491 531 2
492 493 5
492 532 3
493 494 4
493 533 3
494 495 2
494 534 1
495 496 5
495 535 3
496 497 4
496 536 5
497 498 4
497 537 4
498 499 3
498 538 3
499 500 5
499 539 4
500 501 4
500 540 5
501 502 1
501 541 4
502 503 1
502 542 1
503 504 4
503 543 2
504 505 2
504 544 5
505 506 1
505 545 4
506 507 2
506 546 3
507 508 2
507 547 1
508 509 3
508 548 2
509 510 5
509 549 5
510 511 3
510 550 3
511 512 5
511 551 4
512 513 5
512 552 4
513 514 1
513 553 1
514 515 5
514 554 1
515 516 1
515 555 3
516 517 4
516 556 3
517 518 4
517 557 4
518 519 2
518 558 2
519 520 1
519 559 4
520 560 2
521 522 3
521 561 1
522 523 1
522 562 1
523 524 2
523 563 3
524 525 2
524 564 2
525 526 4
525 565 2
526 527 2
526 566 5
527 528 3
527 567 1
528 529 5
528 568 1
529 530 1
529 569 3
530 531 1
530 570 2
531 532 5
531 571 1
532 533 1
532 572 1
533 534 5
533 573 3
534 535 4
534 574 5
535 536 4
535 575 2
536 537 5
536 576 4
537 538 3
537 577 3
538 539 3
538 578 2
539 540 4
539 579 1
540 541 3
540 580 3
541 542 2
541 581 4
542 543 5
542 582 5
543 544 2
543 583 1
544 545 4
544 584 1
545 546 5
545 585 2
546 547 3
546 586 4
547 548 2
547 587 5
548 549 2
548 588 3
549 550 4
549 589 4
550 551 2
550 590 5
551 552 2
551 591 1
552 553 1
552 592 3
553 554 5
553 593 2
554 555 4
554 594 5
555 556 3
555 595 5
556 557 5
556 596 5
557 558 5
557 597 5
558 559 4
558 598 3
559 560 1
559 599 4
560 600 4
561 562 2
561 601 2
562 563 4
562 602 5
563 564 1
563 603 1
564 565 1
564 604 2
565 566 5
565 605 3
566 567 5
566 606 2
567 568 3
567 607 3
568 569 1
568 608 3
569 570 2
569 609 3
570 571 2
570 610 4
571 572 4
571 611 4
572 573 5
572 612 3
573 574 1
573 613 4
574 575 5
574 614 1
575 576 4
575 615 4
576 577 4
576 616 2
577 578 2
577 617 2
578 579 1
578 618 4
579 580 4
579 619 3
580 581 1
580 620 3
581 582 2
581 621 4
582 583 4
582 622 3
583 584 4
583 623 3
584 585 5
584 624 4
585 586 1
585 625 1
586 587 5
586 626 3
587 588 4
587 627 5
588 589 1
588 628 2
589 590 5
589 629 2
590 591 3
590 630 4
591 592 2
591 631 1
592 593 5
592 632 1
593 594 1
593 633 2
594 595 5
594 634 4
595 596 1
595 635 1
596 597 1
596 636 5
597 598 1
597 637 5
598 599 1
598 638 5
599 600 4
599 639 5
600 640 4
601 602 2
601 641 5
602 603 1
602 642 3
603 604 5
603 643 5
604 605 1
604 644 4
605 606 1
605 645 1
606 607 2
606 646 5
607 608 2
607 647 4
608 609 5
608 648 1
609 610 5
609 649 4
610 611 4
610 650 5
611 612 3
611 651 1
612 613 1
612 652 1
613 614 5
613 653 2
614 615 5
614 654 4
615 616 3
615 655 1
616 617 1
616 656 3
617 618 1
617 657 5
618 619 5
618 658 2
619 620 1
619 659 3
620 621 2
620 660 5
621 622 5
621 661 4
622 623 5
622 662 4
623 624 5
623 663 4
624 625 4
624 664 1
625 626 3
625 665 4
626 627 4
626 666 4
627 628 3
627 667 2
628 629 4
628 668 2
629 630 5
629 669 1
630 631 5
630 670 2
631 632 1
631 671 1
632 633 1
632 672 1
633 634 4
633 673 1
634 635 1
634 674 1
635 636 5
635 675 3
636 637 3
636 676 5
637 638 3
637 677 5
638 639 1
638 678 4
639 640 4
639 679 3
640 680 4
641 642 5
641 681 1
642 643 3
642 682 5
643 644 3
643 683 4
644 645 2
644 684 2
645 646 2
645 685 1
646 647 3
646 686 4
647 648 2
647 687 2
648 649 3
648 688 4
649 650 2
649 689 2
650 651 4
650 690 4
651 652 2
651 691 5
652 653 1
652 692 2
653 654 2
653 693 5
654 655 2
654 694 4
655 656 5
655 695 3
656 657 3
656 696 5
657 658 2
657 697 5
658 659 1
658 698 1
659 660 4
659 699 1
660 661 2
660 700 3
661 662 3
661 701 1
662 663 3
662 702 4
663 664 3
663 703 3
664 665 4
664 704 4
665 666 5
665 705 2
666 667 2
666 706 4
667 668 5
667 707 3
668 669 1
668 708 3
669 670 4
669 709 2
670 671 3
670 710 3
671 672 3
671 711 4
672 673 5
672 712 3
673 674 4
673 713 4
674 675 5
674 714 2
675 676 3
675 715 4
676 677 2
676 716 4
677 678 1
677 717 2
678 679 1
678 718 1
679 680 4
679 719 3
680 720 5
681 682 1
681 721 4
682 683 3
682 722 3
683 684 4
683 723 1
684 685 2
684 724 4
685 686 2
685 725 1
686 687 1
686 726 1
687 688 5
687 727 4
688 689 2
688 728 3
689 690 3
689 729 4
690 691 2
690 730 2
691 692 1
691 731 4
692 693 4
692 732 5
693 694 4
693 733 4
694 695 1
694 734 2
695 696 3
695 735 3
696 697 2
696 736 3
697 698 1
697 737 5
698 699 1
698 738 5
699 700 5
699 739 5
700 701 1
700 740 3
701 702 3
701 741 2
702 703 5
702 742 4
703 704 3
703 743 2
704 705 4
704 744 4
705 706 2
705 745 3
706 707 4
706 746 4
707 708 3
707 747 2
708 709 4
708 748 5
709 710 1
709 749 1
710 711 5
710 750 5
711 712 3
711 751 4
712 713 4
712 752 5
713 714 1
713 753 4
714 715 2
714 754 1
715 716 2
715 755 3
716 717 5
716 756 4
717 718 2
717 757 5
718 719 2
718 758 5
719 720 1
719 759 1
720 760 2
721 722 4
721 761 5
722 723 1
722 762 1
723 724 1
723 763 5
724 725 5
724 764 3
725 726 2
725 765 2
726 727 2
726 766 1
727 728 1
727 767 2
728 729 2
728 768 2
729 730 3
729 769 5
730 731 3
730 770 3
731 732 1
731 771 2
732 733 2
732 772 3
733 734 5
733 773 4
734 735 3
734 774 2
735 736 5
735 775 1
736 737 3
736 776 4
737 738 5
737 777 1
738 739 1
738 778 3
739 740 3
739 779 1
740 741 1
740 780 1
741 742 4
741 781 2
742 743 5
742 782 4
743 744 5
743 783 5
744 745 2
744 784 5
745 746 4
745 785 3
746 747 3
746 786 1
747 748 5
747 787 1
748 749 2
748 788 2
749 750 5
749 789 5
750 751 2
750 790 2
751 752 2
751 791 2
752 753 2
752 792 4
753 754 4
753 793 4
754 755 4
754 794 1
755 756 4
755 795 4
756 757 2
756 796 5
757 758 3
757 797 3
758 759 5
758 798 2
759 760 3
759 799 3
760 800 2
761 762 1
761 801 2
762 763 3
762 802 3
763 764 3
763 803 2
764 765 4
764 804 5
765 766 5
765 805 2
766 767 2
766 806 3
767 768 3
767 807 4
768 769 2
768 808 4
769 770 3
769 809 2
770 771 3
770 810 1
771 772 2
771 811 1
772 773 1
772 812 2
773 774 5
773 813 3
774 775 4
774 814 4
775 776 4
775 815 5
776 777 2
776 816 1
777 778 5
777 817 4
778 779 3
778 818 4
779 780 4
779 819 1
780 781 3
780 820 4
781 782 1
781 821 1
782 783 2
782 822 1
783 784 1
783 823 2
784 785 5
784 824 1
785 786 3
785 825 3
786 787 1
786 826 4
787 788 2
787 827 2
788 789 3
788 828 4
789 790 1
789 829 1
790 791 3
790 830 3
791 792 2
791 831 3
792 793 5
792 832 5
793 794 5
793 833 1
794 795 1
794 834 5
795 796 3
795 835 1
796 797 1
796 836 5
797 798 5
797 837 1
798 799 2
798 838 4
799 800 4
799 839 4
800 840 4
801 802 2
801 841 3
802 803 5
802 842 3
803 804 5
803 843 4
804 805 1
804 844 1
805 806 4
805 845 4
806 807 1
806 846 5
807 808 1
807 847 5
808 809 4
808 848 4
809 810 5
809 849 4
810 811 3
810 850 1
811 812 5
811 851 1
812 813 3
812 852 4
813 814 4
813 853 2
814 815 1
814 854 5
815 816 1
815 855 2
816 817 1
816 856 5
817 818 3
817 857 4
818 819 2
818 858 4
819 820 4
819 859 3
820 821 4
820 860 3
821 822 5
821 861 1
822 823 2
822 862 5
823 824 4
823 863 3
824 825 1
824 864 2
825 826 2
825 865 1
826 827 2
826 866 4
827 828 3
827 867 1
828 829 4
828 868 5
829 830 3
829 869 3
830 831 1
830 870 1
831 832 3
831 871 2
832 833 3
832 872 3
833 834 3
833 873 3
834 835 3
834 874 5
835 836 5
835 875 1
836 837 2
836 876 1
837 838 2
837 877 3
838 839 1
838 878 1
839 840 4
839 879 2
840 880 3
841 842 5
841 881 5
842 843 3
842 882 2
843 844 3
843 883 1
844 845 5
844 884 4
845 846 5
845 885 3
846 847 2
846 886 1
847 848 2
847 887 5
848 849 3
848 888 5
849 850 4
849 889 5
850 851 2
850 890 5
851 852 2
851 891 3
852 853 3
852 892 1
853 854 5
853 893 1
854 855 5
854 894 5
855 856 5
855 895 2
856 857 3
856 896 1
857 858 3
857 897 4
858 859 2
858 898 3
859 860 1
859 899 5
860 861 1
860 900 1
861 862 5
861 901 2
862 863 5
862 902 1
863 864 1
863 903 3
864 865 1
864 904 5
865 866 4
865 905 2
866 867 1
866 906 1
867 868 3
867 907 5
868 869 4
868 908 1
869 870 2
869 909 3
870 871 2
870 910 3
871 872 2
871 911 3
872 873 4
872 912 1
873 874 2
873 913 3
874 875 2
874 914 4
875 876 2
875 915 4
876 877 1
876 916 2
877 878 1
877 917 1
878 879 1
878 918 4
879 880 4
879 919 2
880 920 4
881 882 3
881 921 2
882 883 2
882 922 4
883 884 1
883 923 1
884 885 1
884 924 5
885 886 4
885 925 3
886 887 1
886 926 5
887 888 3
887 927 1
888 889 5
888 928 1
889 890 3
889 929 1
890 891 2
890 930 1
891 892 4
891 931 1
892 893 4
892 932 1
893 894 5
893 933 3
894 895 3
894 934 3
895 896 1
895 935 1
896 897 2
896 936 1
897 898 1
897 937 4
898 899 4
898 938 2
899 900 3
899 939 3
900 901 1
900 940 4
901 902 4
901 941 5
902 903 2
902 942 2
903 904 5
903 943 1
904 905 2
904 944 1
905 906 3
905 945 2
906 907 3
906 946 5
907 908 4
907 947 2
908 909 5
908 948 1
909 910 5
909 949 5
910 911 3
910 950 3
911 912 5
911 951 2
912 913 4
912 952 4
913 914 2
913 953 5
914 915 4
914 954 3
915 916 1
915 955 3
916 917 4
916 956 1
917 918 5
917 957 5
918 919 2
918 958 4
919 920 4
919 959 5
920 960 3
921 922 5
921 961 5
922 923 4
922 962 2
923 924 5
923 963 4
924 925 2
924 964 5
925 926 5
925 965 1
926 927 2
926 966 4
927 928 3
927 967 3
928 929 4
928 968 5
929 930 5
929 969 5
930 931 4
930 970 1
931 932 1
931 971 5
932 933 3
932 972 4
933 934 1
933 973 2
934 935 4
934 974 4
935 936 3
935 975 5
936 937 3
936 976 5
937 938 4
937 977 3
938 939 4
938 978 5
939 940 2
939 979 5
940 941 3
940 980 3
941 942 2
941 981 1
942 943 3
942 982 1
943 944 3
943 983 3
944 945 3
944 984 1
945 946 4
945 985 3
946 947 5
946 986 5
947 948 2
947 987 4
948 949 5
948 988 4
949 950 5
949 989 2
950 951 4
950 990 2
951 952 3
951 991 2
952 953 1
952 992 4
953 954 1
953 993 2
954 955 1
954 994 2
955 956 4
955 995 3
956 957 4
956 996 1
957 958 2
957 997 4
958 959 2
958 998 5
959 960 4
959 999 5
960 1000 3
961 962 5
961 1001 1
962 963 4
962 1002 1
963 964 3
963 1003 1
964 965 3
964 1004 1
965 966 2
965 1005 2
966 967 3
966 1006 4
967 968 3
967 1007 5
968 969 2
968 1008 1
969 970 3
969 1009 2
970 971 3
970 1010 5
971 972 3
971 1011 4
972 973 5
972 1012 2
973 974 4
973 1013 2
974 975 2
974 1014 5
975 976 5
975 1015 4
976 977 4
976 1016 3
977 978 4
977 1017 1
978 979 2
978 1018 4
979 980 4
979 1019 3
980 981 3
980 1020 2
981 982 5
981 1021 5
982 983 4
982 1022 3
983 984 5
983 1023 4
984 985 3
984 1024 3
985 986 1
985 1025 3
986 987 4
986 1026 3
987 988 3
987 1027 2
988 989 4
988 1028 4
989 990 1
989 1029 4
990 991 3
990 1030 4
991 992 3
991 1031 2
992 993 1
992 1032 3
993 994 3
993 1033 3
994 995 2
994 1034 1
995 996 2
995 1035 1
996 997 1
996 1036 5
997 998 1
997 1037 5
998 999 1
998 1038 1
999 1000 5
999 1039 5
1000 1040 4
1001 1002 5
1001 1041 1
1002 1003 3
1002 1042 4
1003 1004 3
1003 1043 2
1004 1005 1
1004 1044 2
1005 1006 3
1005 1045 1
1006 1007 4
1006 1046 4
1007 1008 3
1007 1047 5
1008 1009 5
1008 1048 3
1009 1010 3
1009 1049 3
1010 1011 4
1010 1050 2
1011 1012 2
1011 1051 1
1012 1013 3
1012 1052 2
1013 1014 3
1013 1053 3
1014 1015 3
1014 1054 1
1015 1016 5
1015 1055 3
1016 1017 3
1016 1056 5
1017 1018 3
1017 1057 2
1018 1019 3
1018 1058 1
1019 1020 3
1019 1059 2
1020 1021 5
1020 1060 5
1021 1022 3
1021 1061 2
1022 1023 2
1022 1062 3
1023 1024 1
1023 1063 2
1024 1025 1
1024 1064 3
1025 1026 5
1025 1065 4
1026 1027 4
1026 1066 5
1027 1028 1
1027 1067 1
1028 1029 4
1028 1068 5
1029 1030 2
1029 1069 1
1030 1031 1
1030 1070 4
1031 1032 2
1031 1071 3
1032 1033 2
1032 1072 1
1033 1034 3
1033 1073 4
1034 1035 2
1034 1074 5
1035 1036 5
1035 1075 5
1036 1037 1
1036 1076 4
1037 1038 1
1037 1077 1
1038 1039 3
1038 1078 3
1039 1040 1
1039 1079 5
1040 1080 2
1041 1042 3
1041 1081 1
1042 1043 2
1042 1082 1
1043 1044 4
1043 1083 2
1044 1045 4
1044 1084 5
1045 1046 1
1045 1085 3
1046 1047 1
1046 1086 1
1047 1048 2
1047 1087 2
1048 1049 1
1048 1088 1
1049 1050 1
1049 1089 2
1050 1051 3
1050 1090 4
1051 1052 2
1051 1091 3
1052 1053 3
1052 1092 1
1053 1054 4
1053 1093 4
1054 1055 4
1054 1094 5
1055 1056 4
1055 1095 5
1056 1057 3
1056 1096 2
1057 1058 5
1057 1097 5
1058 1059 5
1058 1098 3
1059 1060 2
1059 1099 4
1060 1061 4
1060 1100 3
1061 1062 5
1061 1101 5
1062 1063 2
1062 1102 4
1063 1064 3
1063 1103 4
1064 1065 2
1064 1104 2
1065 1066 3
1065 1105 1
1066 1067 2
1066 1106 1
1067 1068 2
1067 1107 5
1068 1069 2
1068 1108 4
1069 1070 4
1069 1109 2
1070 1071 3
1070 1110 1
1071 1072 1
1071 1111 4
1072 1073 4
1072 1112 4
1073 1074 5
1073 1113 3
1074 1075 2
1074 1114 3
1075 1076 4
1075 1115 2
1076 1077 4
1076 1116 2
1077 1078 2
1077 1117 1
1078 1079 4
1078 1118 3
1079 1080 5
1079 1119 4
1080 1120 5
1081 1082 5
1081 1121 3
1082 1083 1
1082 1122 4
1083 1084 4
1083 1123 4
1084 1085 4
1084 1124 5
1085 1086 2
1085 1125 4
1086 1087 3
1086 1126 4
1087 1088 2
1087 1127 1
1088 1089 4
1088 1128 5
1089 1090 2
1089 1129 3
1090 1091 5
1090 1130 5
1091 1092 2
1091 1131 2
1092 1093 4
1092 1132 2
1093 1094 4
1093 1133 1
1094 1095 4
1094 1134 3
1095 1096 4
1095 1135 2
1096 1097 2
1096 1136 3
1097 1098 5
1097 1137 2
1098 1099 1
1098 1138 3
1099 1100 3
1099 1139 3
1100 1101 1
1100 1140 2
1101 1102 5
1101 1141 2
1102 1103 4
1102 1142 5
1103 1104 2
1103 1143 4
1104 1105 1
1104 1144 4
1105 1106 2
1105 1145 2
1106 1107 1
1106 1146 5
1107 1108 2
1107 1147 3
1108 1109 1
1108 1148 2
1109 1110 5
1109 1149 1
1110 1111 1
1110 1150 2
1111 1112 4
1111 1151 2
1112 1113 3
1112 1152 2
1113 1114 5
1113 1153 1
1114 1115 4
1114 1154 5
1115 1116 1
1115 1155 4
1116 1117 2
1116 1156 4
1117 1118 2
1117 1157 4
1118 1119 3
1118 1158 3
1119 1120 3
1119 1159 5
1120 1160 1
1121 1122 4
1121 1161 5
1122 1123 3
1122 1162 1
1123 1124 5
1123 1163 1
1124 1125 1
1124 1164 1
1125 1126 5
1125 1165 2
1126 1127 2
1126 1166 2
1127 1128 2
1127 1167 5
1128 1129 4
1128 1168 1
1129 1130 3
1129 1169 4
1130 1131 2
1130 1170 4
1131 1132 4
1131 1171 3
1132 1133 2
1132 1172 3
1133 1134 5
1133 1173 1
1134 1135 2
1134 1174 2
1135 1136 3
1135 1175 1
1136 1137 2
1136 1176 4
1137 1138 5
1137 1177 2
1138 1139 2
1138 1178 3
1139 1140 4
1139 1179 4
1140 1141 1
1140 1180 1
1141 1142 5
1141 1181 3
1142 1143 4
1142 1182 1
1143 1144 2
1143 1183 5
1144 1145 4
1144 1184 1
1145 1146 3
1145 1185 1
1146 1147 5
1146 1186 1
1147 1148 2
1147 1187 5
1148 1149 1
1148 1188 5
1149 1150 3
1149 1189 4
1150 1151 1
1150 1190 5
1151 1152 3
1151 1191 3
1152 1153 1
1152 1192 3
1153 1154 3
1153 1193 2
1154 1155 5
1154 1194 3
1155 1156 5
1155 1195 5
1156 1157 2
1156 1196 4
1157 1158 4
1157 1197 2
1158 1159 5
1158 1198 4
1159 1160 1
1159 1199 4
1160 1200 3
1161 1162 2
1161 1201 3
1162 1163 4
1162 1202 3
1163 1164 3
1163 1203 1
1164 1165 1
1164 1204 3
1165 1166 3
1165 1205 5
1166 1167 3
1166 1206 2
1167 1168 3
1167 1207 4
1168 1169 5
1168 1208 3
1169 1170 1
1169 1209 2
1170 1171 1
1170 1210 4
1171 1172 3
1171 1211 3
1172 1173 2
1172 1212 1
1173 1174 1
1173 1213 1
1174 1175 2
1174 1214 1
1175 1176 1
1175 1215 5
1176 1177 5
1176 1216 2
1177 1178 1
1177 1217 2
1178 1179 4
1178 1218 2
1179 1180 4
1179 1219 3
1180 1181 1
1180 1220 2
1181 1182 3
1181 1221 2
1182 1183 3
1182 1222 4
1183 1184 1
1183 1223 1
1184 1185 3
1184 1224 2
1185 1186 1
1185 1225 3
1186 1187 3
1186 1226 3
1187 1188 5
1187 1227 4
1188 1189 3
1188 1228 2
1189 1190 1
1189 1229 5
1190 1191 5
1190 1230 3
1191 1192 3
1191 1231 2
1192 1193 4
1192 1232 2
1193 1194 1
1193 1233 1
1194 1195 1
1194 1234 2
1195 1196 3
1195 1235 4
1196 1197 3
1196 1236 2
1197 1198 3
1197 1237 2
1198 1199 2
1198 1238 2
1199 1200 3
1199 1239 5
1200 1240 5
1201 1202 1
1201 1241 5
1202 1203 5
1202 1242 4
1203 1204 3
1203 1243 3
1204 1205 1
1204 1244 1
1205 1206 5
1205 1245 1
1206 1207 5
1206 1246 3
1207 1208 1
1207 1247 3
1208 1209 4
1208 1248 3
1209 1210 5
1209 1249 3
1210 1211 5
1210 1250 4
1211 1212 2
1211 1251 2
1212 1213 3
1212 1252 1
1213 1214 4
1213 1253 3
1214 1215 4
1214 1254 3
1215 1216 3
1215 1255 3
1216 1217 4
1216 1256 5
1217 1218 4
1217 1257 1
1218 1219 2
1218 1258 4
1219 1220 3
1219 1259 3
1220 1221 2
1220 1260 4
1221 1222 4
1221 1261 1
1222 1223 2
1222 1262 3
1223 1224 4
1223 1263 3
1224 1225 1
1224 1264 5
1225 1226 5
1225 1265 3
1226 1227 4
1226 1266 1
1227 1228 5
1227 1267 4
1228 1229 1
1228 1268 1
1229 1230 3
1229 1269 1
1230 1231 1
1230 1270 5
1231 1232 3
1231 1271 3
1232 1233 4
1232 1272 4
1233 1234 3
1233 1273 3
1234 1235 4
1234 1274 5
1235 1236 4
1235 1275 4
1236 1237 3
1236 1276 4
1237 1238 1
1237 1277 4
1238 1239 5
1238 1278 5
1239 1240 3
1239 1279 3
1240 1280 5
1241 1242 2
1241 1281 5
1242 1243 1
1242 1282 3
1243 1244 1
1243 1283 3
1244 1245 2
1244 1284 3
1245 1246 5
1245 1285 3
1246 1247 1
1246 1286 5
1247 1248 3
1247 1287 5
1248 1249 4
1248 1288 5
1249 1250 2
1249 1289 5
1250 1251 1
1250 1290 2
1251 1252 3
1251 1291 2
1252 1253 2
1252 1292 3
1253 1254 3
1253 1293 5
1254 1255 1
1254 1294 5
1255 1256 4
1255 1295 5
1256 1257 2
1256 1296 4
1257 1258 2
1257 1297 3
1258 1259 5
1258 1298 4
1259 1260 4
1259 1299 3
1260 1261 1
1260 1300 3
1261 1262 2
1261 1301 2
1262 1263 1
1262 1302 5
1263 1264 5
1263 1303 2
1264 1265 2
1264 1304 2
1265 1266 5
1265 1305 3
1266 1267 2
1266 1306 4
1267 1268 1
1267 1307 1
1268 1269 4
1268 1308 5
1269 1270 1
1269 1309 2
1270 1271 5
1270 1310 4
1271 1272 5
1271 1311 4
1272 1273 4
1272 1312 4
1273 1274 3
1273 1313 4
1274 1275 2
1274 1314 2
1275 1276 4
1275 1315 4
1276 1277 1
1276 1316 2
1277 1278 4
1277 1317 5
1278 1279 3
1278 1318 1
1279 1280 1
1279 1319 3
1280 1320 2
1281 1282 3
1281 1321 4
1282 1283 5
1282 1322 1
1283 1284 3
1283 1323 4
1284 1285 2
1284 1324 3
1285 1286 4
1285 1325 2
1286 1287 2
1286 1326 4
1287 1288 2
1287 1327 1
1288 1289 2
1288 1328 4
1289 1290 1
1289 1329 4
1290 1291 4
1290 1330 4
1291 1292 4
1291 1331 3
1292 1293 5
1292 1332 1
1293 1294 1
1293 1333 2
1294 1295 3
1294 1334 4
1295 1296 5
1295 1335 3
1296 1297 2
1296 1336 5
1297 1298 3
1297 1337 4
1298 1299 5
1298 1338 5
1299 1300 1
1299 1339 2
1300 1301 2
1300 1340 2
1301 1302 3
1301 1341 5
1302 1303 4
1302 1342 2
1303 1304 1
1303 1343 3
1304 1305 1
1304 1344 2
1305 1306 5
1305 1345 2
1306 1307 2
1306 1346 2
1307 1308 1
1307 1347 4
1308 1309 4
1308 1348 5
1309 1310 2
1309 1349 1
1310 1311 5
1310 1350 3
1311 1312 2
1311 1351 3
1312 1313 4
1312 1352 4
1313 1314 4
1313 1353 3
1314 1315 1
1314 1354 4
1315 1316 4
1315 1355 2
1316 1317 4
1316 1356 1
1317 1318 5
1317 1357 1
1318 1319 3
1318 1358 1
1319 1320 5
1319 1359 3
1320 1360 1
1321 1322 4
1321 1361 2
1322 1323 3
1322 1362 4
1323 1324 3
1323 1363 2
1324 1325 5
1324 1364 5
1325 1326 2
1325 1365 1
1326 1327 4
1326 1366 4
1327 1328 4
1327 1367 2
1328 1329 5
1328 1368 4
1329 1330 5
1329 1369 3
1330 1331 1
1330 1370 5
1331 1332 1
1331 1371 5
1332 1333 2
1332 1372 2
1333 1334 1
1333 1373 1
1334 1335 4
1334 1374 2
1335 1336 5
1335 1375 5
1336 1337 3
1336 1376 4
1337 1338 3
1337 1377 5
1338 1339 3
1338 1378 1
1339 1340 5
1339 1379 1
1340 1341 5
1340 1380 2
1341 1342 3
1341 1381 1
1342 1343 2
1342 1382 2
1343 1344 1
1343 1383 2
1344 1345 2
1344 1384 1
1345 1346 3
1345 1385 1
1346 1347 3
1346 1386 2
1347 1348 4
1347 1387 2
1348 1349 3
1348 1388 3
1349 1350 1
1349 1389 3
1350 1351 2
1350 1390 5
1351 1352 3
1351 1391 3
1352 1353 4
1352 1392 1
1353 1354 1
1353 1393 5
1354 1355 2
1354 1394 4
1355 1356 1
1355 1395 4
1356 1357 2
1356 1396 5
1357 1358 3
1357 1397 4
1358 1359 3
1358 1398 5
1359 1360 4
1359 1399 5
1360 1400 4
1361 1362 4
1361 1401 3
1362 1363 5
1362 1402 1
1363 1364 3
1363 1403 4
1364 1365 2
1364 1404 2
1365 1366 1
1365 1405 4
1366 1367 5
1366 1406 3
1367 1368 2
1367 1407 2
1368 1369 2
1368 1408 4
1369 1370 1
1369 1409 3
1370 1371 4
1370 1410 3
1371 1372 1
1371 1411 5
1372 1373 4
1372 1412 1
1373 1374 2
1373 1413 2
1374 1375 5
1374 1414 4
1375 1376 5
1375 1415 4
1376 1377 5
1376 1416 5
1377 1378 5
1377 1417 3
1378 1379 4
1378 1418 1
1379 1380 3
1379 1419 4
1380 1381 2
1380 1420 5
1381 1382 5
1381 1421 2
1382 1383 5
1382 1422 4
1383 1384 4
1383 1423 2
1384 1385 3
1384 1424 3
1385 1386 3
1385 1425 5
1386 1387 4
1386 1426 4
1387 1388 1
1387 1427 1
1388 1389 4
1388 1428 3
1389 1390 3
1389 1429 3
1390 1391 3
1390 1430 3
1391 1392 2
1391 1431 3
1392 1393 4
1392 1432 4
1393 1394 5
1393 1433 5
1394 1395 5
1394 1434 5
1395 1396 3
1395 1435 5
1396 1397 4
1396 1436 1
1397 1398 4
1397 1437 3
1398 1399 1
1398 1438 4
1399 1400 2
1399 1439 5
1400 1440 5
1401 1402 1
1401 1441 2
1402 1403 2
1402 1442 4
1403 1404 2
1403 1443 2
1404 1405 1
1404 1444 1
1405 1406 2
1405 1445 2
1406 1407 4
1406 1446 1
1407 1408 1
1407 1447 2
1408 1409 2
1408 1448 1
1409 1410 3
1409 1449 3
1410 1411 4
1410 1450 1
1411 1412 3
1411 1451 5
1412 1413 5
1412 1452 3
1413 1414 2
1413 1453 5
1414 1415 4
1414 1454 1
1415 1416 2
1415 1455 2
1416 1417 2
1416 1456 5
1417 1418 2
1417 1457 3
1418 1419 2
1418 1458 4
1419 1420 2
1419 1459 1
1420 1421 3
1420 1460 2
1421 1422 1
1421 1461 4
1422 1423 4
1422 1462 4
1423 1424 3
1423 1463 4
1424 1425 5
1424 1464 3
1425 1426 3
1425 1465 4
1426 1427 1
1426 1466 1
1427 1428 3
1427 1467 4
1428 1429 1
1428 1468 1
1429 1430 4
1429 1469 3
1430 1431 3
1430 1470 5
1431 1432 2
1431 1471 5
1432 1433 1
1432 1472 2
1433 1434 5
1433 1473 2
1434 1435 4
1434 1474 3
1435 1436 3
1435 1475 3
1436 1437 1
1436 1476 1
1437 1438 3
1437 1477 4
1438 1439 3
1438 1478 4
1439 1440 3
1439 1479 2
1440 1480 1
1441 1442 2
1441 1481 2
1442 1443 1
1442 1482 5
1443 1444 3
1443 1483 2
1444 1445 2
1444 1484 3
1445 1446 4
1445 1485 2
1446 1447 5
1446 1486 2
1447 1448 5
1447 1487 2
1448 1449 2
1448 1488 4
1449 1450 2
1449 1489 2
1450 1451 2
1450 1490 3
1451 1452 1
1451 1491 4
1452 1453 4
1452 1492 5
1453 1454 2
1453 1493 3
1454 1455 1
1454 1494 4
1455 1456 2
1455 1495 1
1456 1457 2
1456 1496 2
1457 1458 1
1457 1497 5
1458 1459 4
1458 1498 3
1459 1460 5
1459 1499 2
1460 1461 4
1460 1500 1
1461 1462 2
1461 1501 2
1462 1463 3
1462 1502 1
1463 1464 5
1463 1503 1
1464 1465 1
1464 1504 4
1465 1466 1
1465 1505 1
1466 1467 2
1466 1506 4
1467 1468 3
1467 1507 2
1468 1469 1
1468 1508 1
1469 1470 4
1469 1509 2
1470 1471 3
1470 1510 5
1471 1472 1
1471 1511 2
1472 1473 4
1472 1512 4
1473 1474 4
1473 1513 5
1474 1475 2
1474 1514 2
1475 1476 5
1475 1515 2
1476 1477 5
1476 1516 1
1477 1478 5
1477 1517 4
1478 1479 1
1478 1518 4
1479 1480 5
1479 1519 2
1480 1520 3
1481 1482 3
1481 1521 4
1482 1483 4
1482 1522 3
1483 1484 3
1483 1523 3
1484 1485 5
1484 1524 1
1485 1486 4
1485 1525 2
1486 1487 2
1486 1526 2
1487 1488 4
1487 1527 5
1488 1489 1
1488 1528 2
1489 1490 1
1489 1529 3
1490 1491 2
1490 1530 5
1491 1492 4
1491 1531 2
1492 1493 5
1492 1532 1
1493 1494 2
1493 1533 1
1494 1495 3
1494 1534 4
1495 1496 3
1495 1535 1
1496 1497 1
1496 1536 1
1497 1498 4
1497 1537 2
1498 1499 5
1498 1538 1
1499 1500 3
1499 1539 5
1500 1501 5
1500 1540 2
1501 1502 2
1501 1541 5
1502 1503 4
1502 1542 4
1503 1504 5
1503 1543 4
1504 1505 1
1504 1544 4
1505 1506 3
1505 1545 5
1506 1507 1
1506 1546 5
1507 1508 5
1507 1547 1
1508 1509 4
1508 1548 3
1509 1510 4
1509 1549 2
1510 1511 4
1510 1550 2
1511 1512 3
1511 1551 2
1512 1513 4
1512 1552 4
1513 1514 5
1513 1553 3
1514 1515 2
1514 1554 2
1515 1516 1
1515 1555 4
1516 1517 3
1516 1556 5
1517 1518 3
1517 1557 3
1518 1519 4
1518 1558 5
1519 1520 2
1519 1559 2
1520 1560 1
1521 1522 3
1521 1561 4
1522 1523 2
1522 1562 3
1523 1524 4
1523 1563 2
1524 1525 5
1524 1564 4
1525 1526 4
1525 1565 5
1526 1527 3
1526 1566 1
1527 1528 1
1527 1567 1
1528 1529 3
1528 1568 3
1529 1530 1
1529 1569 4
1530 1531 4
1530 1570 5
1531 1532 3
1531 1571 1
1532 1533 4
1532 1572 4
1533 1534 4
1533 1573 2
1534 1535 1
1534 1574 2
1535 1536 2
1535 1575 5
1536 1537 4
1536 1576 4
1537 1538 1
1537 1577 4
1538 1539 1
1538 1578 2
1539 1540 5
1539 1579 4
1540 1541 2
1540 1580 2
1541 1542 5
1541 1581 4
1542 1543 4
1542 1582 1
1543 1544 4
1543 1583 5
1544 1545 3
1544 1584 2
1545 1546 5
1545 1585 2
1546 1547 4
1546 1586 4
1547 1548 4
1547 1587 3
1548 1549 3
1548 1588 2
1549 1550 3
1549 1589 5
1550 1551 4
1550 1590 1
1551 1552 3
1551 1591 4
1552 1553 4
1552 1592 3
1553 1554 2
1553 1593 1
1554 1555 3
1554 1594 4
1555 1556 2
1555 1595 5
1556 1557 5
1556 1596 2
1557 1558 3
1557 1597 2
1558 1559 3
1558 1598 4
1559 1560 1
1559 1599 5
1560 1600 3
1561 1562 1
1562 1563 1
1563 1564 5
1564 1565 2
1565 1566 4
1566 1567 5
1567 1568 5
1568 1569 3
1569 1570 2
1570 1571 1
1571 1572 2
1572 1573 1
1573 1574 4
1574 1575 5
1575 1576 3
1576 1577 2
1577 1578 5
1578 1579 1
1579 1580 5
1580 1581 5
1581 1582 2
1582 1583 1
1583 1584 4
1584 1585 4
1585 1586 5
1586 1587 1
1587 1588 3
1588 1589 3
1589 1590 4
1590 1591 2
1591 1592 2
1592 1593 3
1593 1594 4
1594 1595 1
1595 1596 4
1596 1597 2
1597 1598 1
1598 1599 1
1599 1600 2
1 1561 3
2 1562 1
3 1563 4
4 1564 1
5 1565 2
6 1566 5
7 1567 3
8 1568 5
9 1569 4
10 1570 2
11 1571 5
12 1572 3
13 1573 5
14 1574 3
15 1575 1
16 1576 2
17 1577 5
18 1578 3
19 1579 3
20 1580 1
21 1581 1
22 1582 3
23 1583 2
24 1584 1
25 1585 1
26 1586 3
27 1587 3
28 1588 5
29 1589 1
30 1590 5
31 1591 5
32 1592 5
33 1593 1
34 1594 5
35 1595 4
36 1596 1
37 1597 5
38 1598 4
39 1599 4
40 1600 3
1 40 1
41 80 5
81 120 1
121 160 3
161 200 3
201 240 3
241 280 4
281 320 1
321 360 3
361 400 3
401 440 2
441 480 2
481 520 4
521 560 2
561 600 5
601 640 5
641 680 3
681 720 1
721 760 2
761 800 4
801 840 3
841 880 1
881 920 4
921 960 3
961 1000 5
1001 1040 1
1041 1080 1
1081 1120 1
1121 1160 5
1161 1200 5
1201 1240 2
1241 1280 4
1281 1320 1
1321 1360 4
1361 1400 1
1401 1440 2
1441 1480 3
1481 1520 5
1521 1560 1
1561 1600 2
